p wcnf 192 384 385 
1 22 -155 0 
1 109 -40 0 
1 91 -49 0 
1 87 -167 0 
1 -165 180 0 
1 -5 133 0 
1 145 -71 0 
1 96 -92 0 
1 -14 -65 0 
1 -47 -163 0 
1 -19 -8 0 
1 173 -183 0 
1 66 42 0 
1 4 -128 0 
1 62 159 0 
1 -190 86 0 
1 186 172 0 
1 160 -111 0 
1 68 117 0 
1 -113 -60 0 
1 40 108 0 
1 140 -159 0 
1 -95 43 0 
1 58 -161 0 
1 92 -21 0 
1 -179 166 0 
1 51 -8 0 
1 184 -151 0 
1 108 24 0 
1 -167 -127 0 
1 -165 38 0 
1 -31 1 0 
1 52 -145 0 
1 45 -170 0 
1 23 37 0 
1 -120 -17 0 
1 13 -103 0 
1 13 -52 0 
1 -20 69 0 
1 14 128 0 
1 40 184 0 
1 -116 -26 0 
1 -69 -109 0 
1 -11 87 0 
1 -34 -141 0 
1 97 145 0 
1 -177 152 0 
1 3 134 0 
1 166 -60 0 
1 -1 187 0 
1 136 -132 0 
1 37 129 0 
1 113 -40 0 
1 15 -172 0 
1 -69 -5 0 
1 -78 12 0 
1 -131 184 0 
1 -8 -148 0 
1 -22 -35 0 
1 -34 83 0 
1 -47 -20 0 
1 83 126 0 
1 154 -70 0 
1 23 -30 0 
1 -46 -88 0 
1 -53 -115 0 
1 -184 -55 0 
1 -46 -5 0 
1 -146 -139 0 
1 77 181 0 
1 -11 150 0 
1 67 -172 0 
1 115 -91 0 
1 94 190 0 
1 -87 -109 0 
1 51 55 0 
1 -13 64 0 
1 169 -136 0 
1 -41 180 0 
1 177 140 0 
1 57 -98 0 
1 -191 70 0 
1 36 58 0 
1 24 126 0 
1 -133 -181 0 
1 -4 57 0 
1 188 87 0 
1 117 -177 0 
1 60 -123 0 
1 120 -104 0 
1 -171 -143 0 
1 -120 157 0 
1 -78 138 0 
1 -181 41 0 
1 -75 143 0 
1 -127 -164 0 
1 -10 -62 0 
1 -168 82 0 
1 189 -135 0 
1 161 82 0 
1 97 -104 0 
1 81 92 0 
1 92 -33 0 
1 46 81 0 
1 -28 153 0 
1 127 -104 0 
1 127 169 0 
1 -134 -85 0 
1 94 11 0 
1 81 5 0 
1 13 -173 0 
1 -2 165 0 
1 -32 93 0 
1 -85 124 0 
1 154 -133 0 
1 139 143 0 
1 78 -19 0 
1 -128 -30 0 
1 -63 -13 0 
1 12 31 0 
1 -4 94 0 
1 34 -170 0 
1 151 -101 0 
1 -81 -1 0 
1 -45 156 0 
1 -116 138 0 
1 -136 61 0 
1 -75 -103 0 
1 34 81 0 
1 -127 176 0 
1 148 -159 0 
1 -159 172 0 
1 54 -45 0 
1 169 84 0 
1 -116 134 0 
1 132 -28 0 
1 91 183 0 
1 -151 -105 0 
1 -30 -13 0 
1 -132 -5 0 
1 -10 126 0 
1 156 -115 0 
1 -80 161 0 
1 127 58 0 
1 34 73 0 
1 -143 102 0 
1 113 -66 0 
1 162 175 0 
1 138 -78 0 
1 -166 -8 0 
1 -111 -135 0 
1 80 52 0 
1 62 118 0 
1 27 109 0 
1 -121 149 0 
1 -99 84 0 
1 187 -18 0 
1 -57 143 0 
1 -85 -61 0 
1 -50 55 0 
1 -84 164 0 
1 -53 -11 0 
1 -120 188 0 
1 -186 -92 0 
1 89 124 0 
1 28 -11 0 
1 135 -170 0 
1 157 186 0 
1 -177 -32 0 
1 -24 -59 0 
1 -46 179 0 
1 -178 28 0 
1 75 -80 0 
1 14 165 0 
1 192 -108 0 
1 23 -150 0 
1 -103 147 0 
1 -170 65 0 
1 -107 -36 0 
1 128 142 0 
1 -11 -49 0 
1 -28 -138 0 
1 154 -50 0 
1 149 60 0 
1 -122 -116 0 
1 174 115 0 
1 -47 -75 0 
1 165 67 0 
1 -125 -84 0 
1 -180 84 0 
1 -114 -68 0 
1 -69 -61 0 
1 100 -147 0 
1 -42 26 0 
1 -99 175 0 
1 -162 121 0 
1 48 -13 0 
1 -136 -64 0 
1 133 -74 0 
1 94 -124 0 
1 -6 187 0 
1 -109 24 0 
1 -188 -107 0 
1 -160 106 0 
1 164 -91 0 
1 -116 70 0 
1 -155 -100 0 
1 -67 124 0 
1 -141 -67 0 
1 95 3 0 
1 18 -45 0 
1 -16 149 0 
1 -72 129 0 
1 -51 191 0 
1 23 -75 0 
1 125 -3 0 
1 -125 168 0 
1 -54 43 0 
1 28 -109 0 
1 -80 -48 0 
1 36 -32 0 
1 -56 -145 0 
1 4 155 0 
1 158 12 0 
1 -166 -146 0 
1 -177 -158 0 
1 -145 192 0 
1 14 -100 0 
1 -69 -127 0 
1 -119 115 0 
1 180 -9 0 
1 -50 -82 0 
1 -148 5 0 
1 131 95 0 
1 -29 -99 0 
1 95 -29 0 
1 108 -26 0 
1 -176 149 0 
1 66 -116 0 
1 64 19 0 
1 53 89 0 
1 -110 -132 0 
1 157 -172 0 
1 -15 -133 0 
1 -180 13 0 
1 56 22 0 
1 122 55 0 
1 -24 96 0 
1 -153 150 0 
1 -14 -150 0 
1 -24 -105 0 
1 160 71 0 
1 71 174 0 
1 -64 -13 0 
1 -30 -14 0 
1 119 -23 0 
1 -55 -158 0 
1 -46 172 0 
1 56 -48 0 
1 26 -181 0 
1 -109 -85 0 
1 191 74 0 
1 74 188 0 
1 75 173 0 
1 84 -189 0 
1 14 65 0 
1 71 -39 0 
1 132 107 0 
1 -176 39 0 
1 172 -171 0 
1 -89 149 0 
1 181 64 0 
1 -19 47 0 
1 -163 -191 0 
1 124 143 0 
1 -110 -28 0 
1 29 16 0 
1 -51 29 0 
1 -114 -115 0 
1 -178 118 0 
1 -182 52 0 
1 -60 -108 0 
1 -106 -135 0 
1 -191 32 0 
1 41 136 0 
1 71 155 0 
1 -43 118 0 
1 123 135 0 
1 50 154 0 
1 53 -141 0 
1 85 -148 0 
1 -42 74 0 
1 -11 30 0 
1 -68 -33 0 
1 -131 -175 0 
1 -92 -17 0 
1 -45 -76 0 
1 149 -52 0 
1 -114 -138 0 
1 75 62 0 
1 47 -52 0 
1 122 -87 0 
1 -17 4 0 
1 -136 -184 0 
1 -75 -181 0 
1 40 -64 0 
1 -24 -29 0 
1 -177 138 0 
1 -161 50 0 
1 -160 -91 0 
1 -125 -62 0 
1 -85 -75 0 
1 25 -27 0 
1 72 -27 0 
1 68 142 0 
1 10 -101 0 
1 -179 47 0 
1 83 -77 0 
1 -123 75 0 
1 -76 132 0 
1 -142 98 0 
1 -91 -68 0 
1 -10 -83 0 
1 -70 -141 0 
1 -132 -164 0 
1 -4 29 0 
1 100 -125 0 
1 163 -46 0 
1 78 181 0 
1 -42 25 0 
1 -84 1 0 
1 -147 48 0 
1 -42 -189 0 
1 -104 -71 0 
1 -51 182 0 
1 42 57 0 
1 106 -107 0 
1 42 -179 0 
1 -94 -91 0 
1 102 -45 0 
1 149 152 0 
1 -188 118 0 
1 -105 53 0 
1 -71 -92 0 
1 87 -153 0 
1 85 -94 0 
1 23 -75 0 
1 46 123 0 
1 -117 36 0 
1 185 -56 0 
1 -133 20 0 
1 61 -124 0 
1 154 90 0 
1 183 75 0 
1 62 -45 0 
1 -166 -89 0 
1 63 -95 0 
1 174 -162 0 
1 124 140 0 
1 -65 -183 0 
1 -86 98 0 
1 -28 94 0 
1 187 -185 0 
1 146 -149 0 
1 79 -52 0 
1 -6 -39 0 
1 -174 -61 0 
1 186 -34 0 
1 -156 93 0 
1 85 -178 0 
1 74 -98 0 
1 -88 152 0 
1 -25 -158 0 
1 -128 -101 0 
1 -160 -21 0 
1 163 -55 0 
1 -163 -191 0 
1 22 -138 0 
1 106 -86 0 
1 -130 5 0 
1 151 -152 0 
1 -10 158 0 
1 -40 6 0 
1 -3 74 0 
